(set-info :category "industrial")
(set-info :status sat)
(declare-fun x00 () (_ BitVec 8))
(declare-fun x04 () (_ BitVec 8))
(declare-fun x05 () (_ BitVec 8))
(declare-fun x08 () (_ BitVec 8))
(declare-fun x10 () (_ BitVec 8))
(declare-fun x12 () (_ BitVec 8))
(declare-fun x13 () (_ BitVec 8))
(declare-fun x15 () (_ BitVec 8))
(declare-fun x16 () (_ BitVec 8))
(declare-fun x17 () (_ BitVec 8))
(declare-fun x18 () (_ BitVec 8))
(declare-fun x21 () (_ BitVec 8))
(declare-fun x22 () (_ BitVec 8))
(declare-fun x23 () (_ BitVec 8))
(declare-fun x24 () (_ BitVec 8))
(declare-fun x28 () (_ BitVec 8))
(declare-fun x30 () (_ BitVec 8))
(declare-fun x31 () (_ BitVec 8))
(declare-fun x32 () (_ BitVec 8))
(declare-fun x33 () (_ BitVec 8))
(declare-fun x34 () (_ BitVec 8))
(declare-fun x36 () (_ BitVec 8))
(declare-fun x38 () (_ BitVec 8))
(declare-fun x42 () (_ BitVec 8))
(declare-fun x43 () (_ BitVec 8))
(declare-fun x46 () (_ BitVec 8))
(declare-fun x47 () (_ BitVec 8))
(declare-fun x48 () (_ BitVec 8))
(declare-fun x51 () (_ BitVec 8))
(declare-fun x52 () (_ BitVec 8))
(declare-fun x53 () (_ BitVec 8))
(declare-fun x55 () (_ BitVec 8))
(declare-fun x57 () (_ BitVec 8))
(declare-fun x61 () (_ BitVec 8))
(declare-fun x62 () (_ BitVec 8))
(declare-fun x65 () (_ BitVec 8))
(declare-fun x67 () (_ BitVec 8))
(declare-fun x70 () (_ BitVec 8))
(declare-fun x71 () (_ BitVec 8))
(declare-fun x75 () (_ BitVec 8))
(declare-fun x77 () (_ BitVec 8))
(declare-fun x78 () (_ BitVec 8))
(declare-fun x80 () (_ BitVec 8))
(declare-fun x82 () (_ BitVec 8))
(declare-fun x83 () (_ BitVec 8))
(declare-fun x84 () (_ BitVec 8))
(declare-fun x86 () (_ BitVec 8))
(declare-fun x88 () (_ BitVec 8))
(assert (bvult x00 (_ bv9 8)))
(assert (bvult x04 (_ bv9 8)))
(assert (bvult x05 (_ bv9 8)))
(assert (bvult x08 (_ bv9 8)))
(assert (bvult x10 (_ bv9 8)))
(assert (bvult x12 (_ bv9 8)))
(assert (bvult x13 (_ bv9 8)))
(assert (bvult x15 (_ bv9 8)))
(assert (bvult x16 (_ bv9 8)))
(assert (bvult x17 (_ bv9 8)))
(assert (bvult x18 (_ bv9 8)))
(assert (bvult x21 (_ bv9 8)))
(assert (bvult x22 (_ bv9 8)))
(assert (bvult x23 (_ bv9 8)))
(assert (bvult x24 (_ bv9 8)))
(assert (bvult x28 (_ bv9 8)))
(assert (bvult x30 (_ bv9 8)))
(assert (bvult x31 (_ bv9 8)))
(assert (bvult x32 (_ bv9 8)))
(assert (bvult x33 (_ bv9 8)))
(assert (bvult x34 (_ bv9 8)))
(assert (bvult x36 (_ bv9 8)))
(assert (bvult x38 (_ bv9 8)))
(assert (bvult x42 (_ bv9 8)))
(assert (bvult x43 (_ bv9 8)))
(assert (bvult x46 (_ bv9 8)))
(assert (bvult x47 (_ bv9 8)))
(assert (bvult x48 (_ bv9 8)))
(assert (bvult x51 (_ bv9 8)))
(assert (bvult x52 (_ bv9 8)))
(assert (bvult x53 (_ bv9 8)))
(assert (bvult x55 (_ bv9 8)))
(assert (bvult x57 (_ bv9 8)))
(assert (bvult x61 (_ bv9 8)))
(assert (bvult x62 (_ bv9 8)))
(assert (bvult x65 (_ bv9 8)))
(assert (bvult x67 (_ bv9 8)))
(assert (bvult x70 (_ bv9 8)))
(assert (bvult x71 (_ bv9 8)))
(assert (bvult x75 (_ bv9 8)))
(assert (bvult x77 (_ bv9 8)))
(assert (bvult x78 (_ bv9 8)))
(assert (bvult x80 (_ bv9 8)))
(assert (bvult x82 (_ bv9 8)))
(assert (bvult x83 (_ bv9 8)))
(assert (bvult x84 (_ bv9 8)))
(assert (bvult x86 (_ bv9 8)))
(assert (bvult x88 (_ bv9 8)))
(assert (not (= x00 (_ bv4 8))))
(assert (not (= x00 (_ bv9 8))))
(assert (not (= x00 (_ bv1 8))))
(assert (not (= x00 x04)))
(assert (not (= x00 x05)))
(assert (not (= x00 (_ bv3 8))))
(assert (not (= x00 (_ bv6 8))))
(assert (not (= x00 x08)))
(assert (not (= (_ bv4 8) (_ bv9 8))))
(assert (not (= (_ bv4 8) (_ bv1 8))))
(assert (not (= (_ bv4 8) x04)))
(assert (not (= (_ bv4 8) x05)))
(assert (not (= (_ bv4 8) (_ bv3 8))))
(assert (not (= (_ bv4 8) (_ bv6 8))))
(assert (not (= (_ bv4 8) x08)))
(assert (not (= (_ bv9 8) (_ bv1 8))))
(assert (not (= (_ bv9 8) x04)))
(assert (not (= (_ bv9 8) x05)))
(assert (not (= (_ bv9 8) (_ bv3 8))))
(assert (not (= (_ bv9 8) (_ bv6 8))))
(assert (not (= (_ bv9 8) x08)))
(assert (not (= (_ bv1 8) x04)))
(assert (not (= (_ bv1 8) x05)))
(assert (not (= (_ bv1 8) (_ bv3 8))))
(assert (not (= (_ bv1 8) (_ bv6 8))))
(assert (not (= (_ bv1 8) x08)))
(assert (not (= x04 x05)))
(assert (not (= x04 (_ bv3 8))))
(assert (not (= x04 (_ bv6 8))))
(assert (not (= x04 x08)))
(assert (not (= x05 (_ bv3 8))))
(assert (not (= x05 (_ bv6 8))))
(assert (not (= x05 x08)))
(assert (not (= (_ bv3 8) (_ bv6 8))))
(assert (not (= (_ bv3 8) x08)))
(assert (not (= (_ bv6 8) x08)))
(assert (not (= x10 (_ bv3 8))))
(assert (not (= x10 x12)))
(assert (not (= x10 x13)))
(assert (not (= x10 (_ bv2 8))))
(assert (not (= x10 x15)))
(assert (not (= x10 x16)))
(assert (not (= x10 x17)))
(assert (not (= x10 x18)))
(assert (not (= (_ bv3 8) x12)))
(assert (not (= (_ bv3 8) x13)))
(assert (not (= (_ bv3 8) (_ bv2 8))))
(assert (not (= (_ bv3 8) x15)))
(assert (not (= (_ bv3 8) x16)))
(assert (not (= (_ bv3 8) x17)))
(assert (not (= (_ bv3 8) x18)))
(assert (not (= x12 x13)))
(assert (not (= x12 (_ bv2 8))))
(assert (not (= x12 x15)))
(assert (not (= x12 x16)))
(assert (not (= x12 x17)))
(assert (not (= x12 x18)))
(assert (not (= x13 (_ bv2 8))))
(assert (not (= x13 x15)))
(assert (not (= x13 x16)))
(assert (not (= x13 x17)))
(assert (not (= x13 x18)))
(assert (not (= (_ bv2 8) x15)))
(assert (not (= (_ bv2 8) x16)))
(assert (not (= (_ bv2 8) x17)))
(assert (not (= (_ bv2 8) x18)))
(assert (not (= x15 x16)))
(assert (not (= x15 x17)))
(assert (not (= x15 x18)))
(assert (not (= x16 x17)))
(assert (not (= x16 x18)))
(assert (not (= x17 x18)))
(assert (not (= (_ bv2 8) x21)))
(assert (not (= (_ bv2 8) x22)))
(assert (not (= (_ bv2 8) x23)))
(assert (not (= (_ bv2 8) x24)))
(assert (not (= (_ bv2 8) (_ bv7 8))))
(assert (not (= (_ bv2 8) (_ bv4 8))))
(assert (not (= (_ bv2 8) (_ bv5 8))))
(assert (not (= (_ bv2 8) x28)))
(assert (not (= x21 x22)))
(assert (not (= x21 x23)))
(assert (not (= x21 x24)))
(assert (not (= x21 (_ bv7 8))))
(assert (not (= x21 (_ bv4 8))))
(assert (not (= x21 (_ bv5 8))))
(assert (not (= x21 x28)))
(assert (not (= x22 x23)))
(assert (not (= x22 x24)))
(assert (not (= x22 (_ bv7 8))))
(assert (not (= x22 (_ bv4 8))))
(assert (not (= x22 (_ bv5 8))))
(assert (not (= x22 x28)))
(assert (not (= x23 x24)))
(assert (not (= x23 (_ bv7 8))))
(assert (not (= x23 (_ bv4 8))))
(assert (not (= x23 (_ bv5 8))))
(assert (not (= x23 x28)))
(assert (not (= x24 (_ bv7 8))))
(assert (not (= x24 (_ bv4 8))))
(assert (not (= x24 (_ bv5 8))))
(assert (not (= x24 x28)))
(assert (not (= (_ bv7 8) (_ bv4 8))))
(assert (not (= (_ bv7 8) (_ bv5 8))))
(assert (not (= (_ bv7 8) x28)))
(assert (not (= (_ bv4 8) (_ bv5 8))))
(assert (not (= (_ bv4 8) x28)))
(assert (not (= (_ bv5 8) x28)))
(assert (not (= x30 x31)))
(assert (not (= x30 x32)))
(assert (not (= x30 x33)))
(assert (not (= x30 x34)))
(assert (not (= x30 (_ bv8 8))))
(assert (not (= x30 x36)))
(assert (not (= x30 (_ bv7 8))))
(assert (not (= x30 x38)))
(assert (not (= x31 x32)))
(assert (not (= x31 x33)))
(assert (not (= x31 x34)))
(assert (not (= x31 (_ bv8 8))))
(assert (not (= x31 x36)))
(assert (not (= x31 (_ bv7 8))))
(assert (not (= x31 x38)))
(assert (not (= x32 x33)))
(assert (not (= x32 x34)))
(assert (not (= x32 (_ bv8 8))))
(assert (not (= x32 x36)))
(assert (not (= x32 (_ bv7 8))))
(assert (not (= x32 x38)))
(assert (not (= x33 x34)))
(assert (not (= x33 (_ bv8 8))))
(assert (not (= x33 x36)))
(assert (not (= x33 (_ bv7 8))))
(assert (not (= x33 x38)))
(assert (not (= x34 (_ bv8 8))))
(assert (not (= x34 x36)))
(assert (not (= x34 (_ bv7 8))))
(assert (not (= x34 x38)))
(assert (not (= (_ bv8 8) x36)))
(assert (not (= (_ bv8 8) (_ bv7 8))))
(assert (not (= (_ bv8 8) x38)))
(assert (not (= x36 (_ bv7 8))))
(assert (not (= x36 x38)))
(assert (not (= (_ bv7 8) x38)))
(assert (not (= (_ bv1 8) (_ bv7 8))))
(assert (not (= (_ bv1 8) x42)))
(assert (not (= (_ bv1 8) x43)))
(assert (not (= (_ bv1 8) (_ bv9 8))))
(assert (not (= (_ bv1 8) (_ bv3 8))))
(assert (not (= (_ bv1 8) x46)))
(assert (not (= (_ bv1 8) x47)))
(assert (not (= (_ bv1 8) x48)))
(assert (not (= (_ bv7 8) x42)))
(assert (not (= (_ bv7 8) x43)))
(assert (not (= (_ bv7 8) (_ bv9 8))))
(assert (not (= (_ bv7 8) (_ bv3 8))))
(assert (not (= (_ bv7 8) x46)))
(assert (not (= (_ bv7 8) x47)))
(assert (not (= (_ bv7 8) x48)))
(assert (not (= x42 x43)))
(assert (not (= x42 (_ bv9 8))))
(assert (not (= x42 (_ bv3 8))))
(assert (not (= x42 x46)))
(assert (not (= x42 x47)))
(assert (not (= x42 x48)))
(assert (not (= x43 (_ bv9 8))))
(assert (not (= x43 (_ bv3 8))))
(assert (not (= x43 x46)))
(assert (not (= x43 x47)))
(assert (not (= x43 x48)))
(assert (not (= (_ bv9 8) (_ bv3 8))))
(assert (not (= (_ bv9 8) x46)))
(assert (not (= (_ bv9 8) x47)))
(assert (not (= (_ bv9 8) x48)))
(assert (not (= (_ bv3 8) x46)))
(assert (not (= (_ bv3 8) x47)))
(assert (not (= (_ bv3 8) x48)))
(assert (not (= x46 x47)))
(assert (not (= x46 x48)))
(assert (not (= x47 x48)))
(assert (not (= (_ bv5 8) x51)))
(assert (not (= (_ bv5 8) x52)))
(assert (not (= (_ bv5 8) x53)))
(assert (not (= (_ bv5 8) (_ bv1 8))))
(assert (not (= (_ bv5 8) x55)))
(assert (not (= (_ bv5 8) (_ bv2 8))))
(assert (not (= (_ bv5 8) x57)))
(assert (not (= (_ bv5 8) (_ bv8 8))))
(assert (not (= x51 x52)))
(assert (not (= x51 x53)))
(assert (not (= x51 (_ bv1 8))))
(assert (not (= x51 x55)))
(assert (not (= x51 (_ bv2 8))))
(assert (not (= x51 x57)))
(assert (not (= x51 (_ bv8 8))))
(assert (not (= x52 x53)))
(assert (not (= x52 (_ bv1 8))))
(assert (not (= x52 x55)))
(assert (not (= x52 (_ bv2 8))))
(assert (not (= x52 x57)))
(assert (not (= x52 (_ bv8 8))))
(assert (not (= x53 (_ bv1 8))))
(assert (not (= x53 x55)))
(assert (not (= x53 (_ bv2 8))))
(assert (not (= x53 x57)))
(assert (not (= x53 (_ bv8 8))))
(assert (not (= (_ bv1 8) x55)))
(assert (not (= (_ bv1 8) (_ bv2 8))))
(assert (not (= (_ bv1 8) x57)))
(assert (not (= (_ bv1 8) (_ bv8 8))))
(assert (not (= x55 (_ bv2 8))))
(assert (not (= x55 x57)))
(assert (not (= x55 (_ bv8 8))))
(assert (not (= (_ bv2 8) x57)))
(assert (not (= (_ bv2 8) (_ bv8 8))))
(assert (not (= x57 (_ bv8 8))))
(assert (not (= (_ bv8 8) x61)))
(assert (not (= (_ bv8 8) x62)))
(assert (not (= (_ bv8 8) (_ bv6 8))))
(assert (not (= (_ bv8 8) (_ bv3 8))))
(assert (not (= (_ bv8 8) x65)))
(assert (not (= (_ bv8 8) (_ bv1 8))))
(assert (not (= (_ bv8 8) x67)))
(assert (not (= (_ bv8 8) (_ bv4 8))))
(assert (not (= x61 x62)))
(assert (not (= x61 (_ bv6 8))))
(assert (not (= x61 (_ bv3 8))))
(assert (not (= x61 x65)))
(assert (not (= x61 (_ bv1 8))))
(assert (not (= x61 x67)))
(assert (not (= x61 (_ bv4 8))))
(assert (not (= x62 (_ bv6 8))))
(assert (not (= x62 (_ bv3 8))))
(assert (not (= x62 x65)))
(assert (not (= x62 (_ bv1 8))))
(assert (not (= x62 x67)))
(assert (not (= x62 (_ bv4 8))))
(assert (not (= (_ bv6 8) (_ bv3 8))))
(assert (not (= (_ bv6 8) x65)))
(assert (not (= (_ bv6 8) (_ bv1 8))))
(assert (not (= (_ bv6 8) x67)))
(assert (not (= (_ bv6 8) (_ bv4 8))))
(assert (not (= (_ bv3 8) x65)))
(assert (not (= (_ bv3 8) (_ bv1 8))))
(assert (not (= (_ bv3 8) x67)))
(assert (not (= (_ bv3 8) (_ bv4 8))))
(assert (not (= x65 (_ bv1 8))))
(assert (not (= x65 x67)))
(assert (not (= x65 (_ bv4 8))))
(assert (not (= (_ bv1 8) x67)))
(assert (not (= (_ bv1 8) (_ bv4 8))))
(assert (not (= x67 (_ bv4 8))))
(assert (not (= x70 x71)))
(assert (not (= x70 (_ bv3 8))))
(assert (not (= x70 (_ bv9 8))))
(assert (not (= x70 (_ bv5 8))))
(assert (not (= x70 x75)))
(assert (not (= x70 (_ bv7 8))))
(assert (not (= x70 x77)))
(assert (not (= x70 x78)))
(assert (not (= x71 (_ bv3 8))))
(assert (not (= x71 (_ bv9 8))))
(assert (not (= x71 (_ bv5 8))))
(assert (not (= x71 x75)))
(assert (not (= x71 (_ bv7 8))))
(assert (not (= x71 x77)))
(assert (not (= x71 x78)))
(assert (not (= (_ bv3 8) (_ bv9 8))))
(assert (not (= (_ bv3 8) (_ bv5 8))))
(assert (not (= (_ bv3 8) x75)))
(assert (not (= (_ bv3 8) (_ bv7 8))))
(assert (not (= (_ bv3 8) x77)))
(assert (not (= (_ bv3 8) x78)))
(assert (not (= (_ bv9 8) (_ bv5 8))))
(assert (not (= (_ bv9 8) x75)))
(assert (not (= (_ bv9 8) (_ bv7 8))))
(assert (not (= (_ bv9 8) x77)))
(assert (not (= (_ bv9 8) x78)))
(assert (not (= (_ bv5 8) x75)))
(assert (not (= (_ bv5 8) (_ bv7 8))))
(assert (not (= (_ bv5 8) x77)))
(assert (not (= (_ bv5 8) x78)))
(assert (not (= x75 (_ bv7 8))))
(assert (not (= x75 x77)))
(assert (not (= x75 x78)))
(assert (not (= (_ bv7 8) x77)))
(assert (not (= (_ bv7 8) x78)))
(assert (not (= x77 x78)))
(assert (not (= x80 (_ bv1 8))))
(assert (not (= x80 x82)))
(assert (not (= x80 x83)))
(assert (not (= x80 x84)))
(assert (not (= x80 (_ bv4 8))))
(assert (not (= x80 x86)))
(assert (not (= x80 (_ bv2 8))))
(assert (not (= x80 x88)))
(assert (not (= (_ bv1 8) x82)))
(assert (not (= (_ bv1 8) x83)))
(assert (not (= (_ bv1 8) x84)))
(assert (not (= (_ bv1 8) (_ bv4 8))))
(assert (not (= (_ bv1 8) x86)))
(assert (not (= (_ bv1 8) (_ bv2 8))))
(assert (not (= (_ bv1 8) x88)))
(assert (not (= x82 x83)))
(assert (not (= x82 x84)))
(assert (not (= x82 (_ bv4 8))))
(assert (not (= x82 x86)))
(assert (not (= x82 (_ bv2 8))))
(assert (not (= x82 x88)))
(assert (not (= x83 x84)))
(assert (not (= x83 (_ bv4 8))))
(assert (not (= x83 x86)))
(assert (not (= x83 (_ bv2 8))))
(assert (not (= x83 x88)))
(assert (not (= x84 (_ bv4 8))))
(assert (not (= x84 x86)))
(assert (not (= x84 (_ bv2 8))))
(assert (not (= x84 x88)))
(assert (not (= (_ bv4 8) x86)))
(assert (not (= (_ bv4 8) (_ bv2 8))))
(assert (not (= (_ bv4 8) x88)))
(assert (not (= x86 (_ bv2 8))))
(assert (not (= x86 x88)))
(assert (not (= (_ bv2 8) x88)))
(assert (not (= x00 x10)))
(assert (not (= x00 (_ bv2 8))))
(assert (not (= x00 x30)))
(assert (not (= x00 (_ bv1 8))))
(assert (not (= x00 (_ bv5 8))))
(assert (not (= x00 (_ bv8 8))))
(assert (not (= x00 x70)))
(assert (not (= x00 x80)))
(assert (not (= x10 (_ bv2 8))))
(assert (not (= x10 x30)))
(assert (not (= x10 (_ bv1 8))))
(assert (not (= x10 (_ bv5 8))))
(assert (not (= x10 (_ bv8 8))))
(assert (not (= x10 x70)))
(assert (not (= x10 x80)))
(assert (not (= (_ bv2 8) x30)))
(assert (not (= (_ bv2 8) (_ bv1 8))))
(assert (not (= (_ bv2 8) (_ bv5 8))))
(assert (not (= (_ bv2 8) (_ bv8 8))))
(assert (not (= (_ bv2 8) x70)))
(assert (not (= (_ bv2 8) x80)))
(assert (not (= x30 (_ bv1 8))))
(assert (not (= x30 (_ bv5 8))))
(assert (not (= x30 (_ bv8 8))))
(assert (not (= x30 x70)))
(assert (not (= x30 x80)))
(assert (not (= (_ bv1 8) (_ bv5 8))))
(assert (not (= (_ bv1 8) (_ bv8 8))))
(assert (not (= (_ bv1 8) x70)))
(assert (not (= (_ bv1 8) x80)))
(assert (not (= (_ bv5 8) (_ bv8 8))))
(assert (not (= (_ bv5 8) x70)))
(assert (not (= (_ bv5 8) x80)))
(assert (not (= (_ bv8 8) x70)))
(assert (not (= (_ bv8 8) x80)))
(assert (not (= x70 x80)))
(assert (not (= (_ bv4 8) (_ bv3 8))))
(assert (not (= (_ bv4 8) x21)))
(assert (not (= (_ bv4 8) x31)))
(assert (not (= (_ bv4 8) (_ bv7 8))))
(assert (not (= (_ bv4 8) x51)))
(assert (not (= (_ bv4 8) x61)))
(assert (not (= (_ bv4 8) x71)))
(assert (not (= (_ bv4 8) (_ bv1 8))))
(assert (not (= (_ bv3 8) x21)))
(assert (not (= (_ bv3 8) x31)))
(assert (not (= (_ bv3 8) (_ bv7 8))))
(assert (not (= (_ bv3 8) x51)))
(assert (not (= (_ bv3 8) x61)))
(assert (not (= (_ bv3 8) x71)))
(assert (not (= (_ bv3 8) (_ bv1 8))))
(assert (not (= x21 x31)))
(assert (not (= x21 (_ bv7 8))))
(assert (not (= x21 x51)))
(assert (not (= x21 x61)))
(assert (not (= x21 x71)))
(assert (not (= x21 (_ bv1 8))))
(assert (not (= x31 (_ bv7 8))))
(assert (not (= x31 x51)))
(assert (not (= x31 x61)))
(assert (not (= x31 x71)))
(assert (not (= x31 (_ bv1 8))))
(assert (not (= (_ bv7 8) x51)))
(assert (not (= (_ bv7 8) x61)))
(assert (not (= (_ bv7 8) x71)))
(assert (not (= (_ bv7 8) (_ bv1 8))))
(assert (not (= x51 x61)))
(assert (not (= x51 x71)))
(assert (not (= x51 (_ bv1 8))))
(assert (not (= x61 x71)))
(assert (not (= x61 (_ bv1 8))))
(assert (not (= x71 (_ bv1 8))))
(assert (not (= (_ bv9 8) x12)))
(assert (not (= (_ bv9 8) x22)))
(assert (not (= (_ bv9 8) x32)))
(assert (not (= (_ bv9 8) x42)))
(assert (not (= (_ bv9 8) x52)))
(assert (not (= (_ bv9 8) x62)))
(assert (not (= (_ bv9 8) (_ bv3 8))))
(assert (not (= (_ bv9 8) x82)))
(assert (not (= x12 x22)))
(assert (not (= x12 x32)))
(assert (not (= x12 x42)))
(assert (not (= x12 x52)))
(assert (not (= x12 x62)))
(assert (not (= x12 (_ bv3 8))))
(assert (not (= x12 x82)))
(assert (not (= x22 x32)))
(assert (not (= x22 x42)))
(assert (not (= x22 x52)))
(assert (not (= x22 x62)))
(assert (not (= x22 (_ bv3 8))))
(assert (not (= x22 x82)))
(assert (not (= x32 x42)))
(assert (not (= x32 x52)))
(assert (not (= x32 x62)))
(assert (not (= x32 (_ bv3 8))))
(assert (not (= x32 x82)))
(assert (not (= x42 x52)))
(assert (not (= x42 x62)))
(assert (not (= x42 (_ bv3 8))))
(assert (not (= x42 x82)))
(assert (not (= x52 x62)))
(assert (not (= x52 (_ bv3 8))))
(assert (not (= x52 x82)))
(assert (not (= x62 (_ bv3 8))))
(assert (not (= x62 x82)))
(assert (not (= (_ bv3 8) x82)))
(assert (not (= (_ bv1 8) x13)))
(assert (not (= (_ bv1 8) x23)))
(assert (not (= (_ bv1 8) x33)))
(assert (not (= (_ bv1 8) x43)))
(assert (not (= (_ bv1 8) x53)))
(assert (not (= (_ bv1 8) (_ bv6 8))))
(assert (not (= (_ bv1 8) (_ bv9 8))))
(assert (not (= (_ bv1 8) x83)))
(assert (not (= x13 x23)))
(assert (not (= x13 x33)))
(assert (not (= x13 x43)))
(assert (not (= x13 x53)))
(assert (not (= x13 (_ bv6 8))))
(assert (not (= x13 (_ bv9 8))))
(assert (not (= x13 x83)))
(assert (not (= x23 x33)))
(assert (not (= x23 x43)))
(assert (not (= x23 x53)))
(assert (not (= x23 (_ bv6 8))))
(assert (not (= x23 (_ bv9 8))))
(assert (not (= x23 x83)))
(assert (not (= x33 x43)))
(assert (not (= x33 x53)))
(assert (not (= x33 (_ bv6 8))))
(assert (not (= x33 (_ bv9 8))))
(assert (not (= x33 x83)))
(assert (not (= x43 x53)))
(assert (not (= x43 (_ bv6 8))))
(assert (not (= x43 (_ bv9 8))))
(assert (not (= x43 x83)))
(assert (not (= x53 (_ bv6 8))))
(assert (not (= x53 (_ bv9 8))))
(assert (not (= x53 x83)))
(assert (not (= (_ bv6 8) (_ bv9 8))))
(assert (not (= (_ bv6 8) x83)))
(assert (not (= (_ bv9 8) x83)))
(assert (not (= x04 (_ bv2 8))))
(assert (not (= x04 x24)))
(assert (not (= x04 x34)))
(assert (not (= x04 (_ bv9 8))))
(assert (not (= x04 (_ bv1 8))))
(assert (not (= x04 (_ bv3 8))))
(assert (not (= x04 (_ bv5 8))))
(assert (not (= x04 x84)))
(assert (not (= (_ bv2 8) x24)))
(assert (not (= (_ bv2 8) x34)))
(assert (not (= (_ bv2 8) (_ bv9 8))))
(assert (not (= (_ bv2 8) (_ bv1 8))))
(assert (not (= (_ bv2 8) (_ bv3 8))))
(assert (not (= (_ bv2 8) (_ bv5 8))))
(assert (not (= (_ bv2 8) x84)))
(assert (not (= x24 x34)))
(assert (not (= x24 (_ bv9 8))))
(assert (not (= x24 (_ bv1 8))))
(assert (not (= x24 (_ bv3 8))))
(assert (not (= x24 (_ bv5 8))))
(assert (not (= x24 x84)))
(assert (not (= x34 (_ bv9 8))))
(assert (not (= x34 (_ bv1 8))))
(assert (not (= x34 (_ bv3 8))))
(assert (not (= x34 (_ bv5 8))))
(assert (not (= x34 x84)))
(assert (not (= (_ bv9 8) (_ bv1 8))))
(assert (not (= (_ bv9 8) (_ bv3 8))))
(assert (not (= (_ bv9 8) (_ bv5 8))))
(assert (not (= (_ bv9 8) x84)))
(assert (not (= (_ bv1 8) (_ bv3 8))))
(assert (not (= (_ bv1 8) (_ bv5 8))))
(assert (not (= (_ bv1 8) x84)))
(assert (not (= (_ bv3 8) (_ bv5 8))))
(assert (not (= (_ bv3 8) x84)))
(assert (not (= (_ bv5 8) x84)))
(assert (not (= x05 x15)))
(assert (not (= x05 (_ bv7 8))))
(assert (not (= x05 (_ bv8 8))))
(assert (not (= x05 (_ bv3 8))))
(assert (not (= x05 x55)))
(assert (not (= x05 x65)))
(assert (not (= x05 x75)))
(assert (not (= x05 (_ bv4 8))))
(assert (not (= x15 (_ bv7 8))))
(assert (not (= x15 (_ bv8 8))))
(assert (not (= x15 (_ bv3 8))))
(assert (not (= x15 x55)))
(assert (not (= x15 x65)))
(assert (not (= x15 x75)))
(assert (not (= x15 (_ bv4 8))))
(assert (not (= (_ bv7 8) (_ bv8 8))))
(assert (not (= (_ bv7 8) (_ bv3 8))))
(assert (not (= (_ bv7 8) x55)))
(assert (not (= (_ bv7 8) x65)))
(assert (not (= (_ bv7 8) x75)))
(assert (not (= (_ bv7 8) (_ bv4 8))))
(assert (not (= (_ bv8 8) (_ bv3 8))))
(assert (not (= (_ bv8 8) x55)))
(assert (not (= (_ bv8 8) x65)))
(assert (not (= (_ bv8 8) x75)))
(assert (not (= (_ bv8 8) (_ bv4 8))))
(assert (not (= (_ bv3 8) x55)))
(assert (not (= (_ bv3 8) x65)))
(assert (not (= (_ bv3 8) x75)))
(assert (not (= (_ bv3 8) (_ bv4 8))))
(assert (not (= x55 x65)))
(assert (not (= x55 x75)))
(assert (not (= x55 (_ bv4 8))))
(assert (not (= x65 x75)))
(assert (not (= x65 (_ bv4 8))))
(assert (not (= x75 (_ bv4 8))))
(assert (not (= (_ bv3 8) x16)))
(assert (not (= (_ bv3 8) (_ bv4 8))))
(assert (not (= (_ bv3 8) x36)))
(assert (not (= (_ bv3 8) x46)))
(assert (not (= (_ bv3 8) (_ bv2 8))))
(assert (not (= (_ bv3 8) (_ bv1 8))))
(assert (not (= (_ bv3 8) (_ bv7 8))))
(assert (not (= (_ bv3 8) x86)))
(assert (not (= x16 (_ bv4 8))))
(assert (not (= x16 x36)))
(assert (not (= x16 x46)))
(assert (not (= x16 (_ bv2 8))))
(assert (not (= x16 (_ bv1 8))))
(assert (not (= x16 (_ bv7 8))))
(assert (not (= x16 x86)))
(assert (not (= (_ bv4 8) x36)))
(assert (not (= (_ bv4 8) x46)))
(assert (not (= (_ bv4 8) (_ bv2 8))))
(assert (not (= (_ bv4 8) (_ bv1 8))))
(assert (not (= (_ bv4 8) (_ bv7 8))))
(assert (not (= (_ bv4 8) x86)))
(assert (not (= x36 x46)))
(assert (not (= x36 (_ bv2 8))))
(assert (not (= x36 (_ bv1 8))))
(assert (not (= x36 (_ bv7 8))))
(assert (not (= x36 x86)))
(assert (not (= x46 (_ bv2 8))))
(assert (not (= x46 (_ bv1 8))))
(assert (not (= x46 (_ bv7 8))))
(assert (not (= x46 x86)))
(assert (not (= (_ bv2 8) (_ bv1 8))))
(assert (not (= (_ bv2 8) (_ bv7 8))))
(assert (not (= (_ bv2 8) x86)))
(assert (not (= (_ bv1 8) (_ bv7 8))))
(assert (not (= (_ bv1 8) x86)))
(assert (not (= (_ bv7 8) x86)))
(assert (not (= (_ bv6 8) x17)))
(assert (not (= (_ bv6 8) (_ bv5 8))))
(assert (not (= (_ bv6 8) (_ bv7 8))))
(assert (not (= (_ bv6 8) x47)))
(assert (not (= (_ bv6 8) x57)))
(assert (not (= (_ bv6 8) x67)))
(assert (not (= (_ bv6 8) x77)))
(assert (not (= (_ bv6 8) (_ bv2 8))))
(assert (not (= x17 (_ bv5 8))))
(assert (not (= x17 (_ bv7 8))))
(assert (not (= x17 x47)))
(assert (not (= x17 x57)))
(assert (not (= x17 x67)))
(assert (not (= x17 x77)))
(assert (not (= x17 (_ bv2 8))))
(assert (not (= (_ bv5 8) (_ bv7 8))))
(assert (not (= (_ bv5 8) x47)))
(assert (not (= (_ bv5 8) x57)))
(assert (not (= (_ bv5 8) x67)))
(assert (not (= (_ bv5 8) x77)))
(assert (not (= (_ bv5 8) (_ bv2 8))))
(assert (not (= (_ bv7 8) x47)))
(assert (not (= (_ bv7 8) x57)))
(assert (not (= (_ bv7 8) x67)))
(assert (not (= (_ bv7 8) x77)))
(assert (not (= (_ bv7 8) (_ bv2 8))))
(assert (not (= x47 x57)))
(assert (not (= x47 x67)))
(assert (not (= x47 x77)))
(assert (not (= x47 (_ bv2 8))))
(assert (not (= x57 x67)))
(assert (not (= x57 x77)))
(assert (not (= x57 (_ bv2 8))))
(assert (not (= x67 x77)))
(assert (not (= x67 (_ bv2 8))))
(assert (not (= x77 (_ bv2 8))))
(assert (not (= x08 x18)))
(assert (not (= x08 x28)))
(assert (not (= x08 x38)))
(assert (not (= x08 x48)))
(assert (not (= x08 (_ bv8 8))))
(assert (not (= x08 (_ bv4 8))))
(assert (not (= x08 x78)))
(assert (not (= x08 x88)))
(assert (not (= x18 x28)))
(assert (not (= x18 x38)))
(assert (not (= x18 x48)))
(assert (not (= x18 (_ bv8 8))))
(assert (not (= x18 (_ bv4 8))))
(assert (not (= x18 x78)))
(assert (not (= x18 x88)))
(assert (not (= x28 x38)))
(assert (not (= x28 x48)))
(assert (not (= x28 (_ bv8 8))))
(assert (not (= x28 (_ bv4 8))))
(assert (not (= x28 x78)))
(assert (not (= x28 x88)))
(assert (not (= x38 x48)))
(assert (not (= x38 (_ bv8 8))))
(assert (not (= x38 (_ bv4 8))))
(assert (not (= x38 x78)))
(assert (not (= x38 x88)))
(assert (not (= x48 (_ bv8 8))))
(assert (not (= x48 (_ bv4 8))))
(assert (not (= x48 x78)))
(assert (not (= x48 x88)))
(assert (not (= (_ bv8 8) (_ bv4 8))))
(assert (not (= (_ bv8 8) x78)))
(assert (not (= (_ bv8 8) x88)))
(assert (not (= (_ bv4 8) x78)))
(assert (not (= (_ bv4 8) x88)))
(assert (not (= x78 x88)))
(assert (not (= x00 (_ bv4 8))))
(assert (not (= x00 (_ bv9 8))))
(assert (not (= x00 x10)))
(assert (not (= x00 (_ bv3 8))))
(assert (not (= x00 x12)))
(assert (not (= x00 (_ bv2 8))))
(assert (not (= x00 x21)))
(assert (not (= x00 x22)))
(assert (not (= (_ bv4 8) (_ bv9 8))))
(assert (not (= (_ bv4 8) x10)))
(assert (not (= (_ bv4 8) (_ bv3 8))))
(assert (not (= (_ bv4 8) x12)))
(assert (not (= (_ bv4 8) (_ bv2 8))))
(assert (not (= (_ bv4 8) x21)))
(assert (not (= (_ bv4 8) x22)))
(assert (not (= (_ bv9 8) x10)))
(assert (not (= (_ bv9 8) (_ bv3 8))))
(assert (not (= (_ bv9 8) x12)))
(assert (not (= (_ bv9 8) (_ bv2 8))))
(assert (not (= (_ bv9 8) x21)))
(assert (not (= (_ bv9 8) x22)))
(assert (not (= x10 (_ bv3 8))))
(assert (not (= x10 x12)))
(assert (not (= x10 (_ bv2 8))))
(assert (not (= x10 x21)))
(assert (not (= x10 x22)))
(assert (not (= (_ bv3 8) x12)))
(assert (not (= (_ bv3 8) (_ bv2 8))))
(assert (not (= (_ bv3 8) x21)))
(assert (not (= (_ bv3 8) x22)))
(assert (not (= x12 (_ bv2 8))))
(assert (not (= x12 x21)))
(assert (not (= x12 x22)))
(assert (not (= (_ bv2 8) x21)))
(assert (not (= (_ bv2 8) x22)))
(assert (not (= x21 x22)))
(assert (not (= (_ bv1 8) x04)))
(assert (not (= (_ bv1 8) x05)))
(assert (not (= (_ bv1 8) x13)))
(assert (not (= (_ bv1 8) (_ bv2 8))))
(assert (not (= (_ bv1 8) x15)))
(assert (not (= (_ bv1 8) x23)))
(assert (not (= (_ bv1 8) x24)))
(assert (not (= (_ bv1 8) (_ bv7 8))))
(assert (not (= x04 x05)))
(assert (not (= x04 x13)))
(assert (not (= x04 (_ bv2 8))))
(assert (not (= x04 x15)))
(assert (not (= x04 x23)))
(assert (not (= x04 x24)))
(assert (not (= x04 (_ bv7 8))))
(assert (not (= x05 x13)))
(assert (not (= x05 (_ bv2 8))))
(assert (not (= x05 x15)))
(assert (not (= x05 x23)))
(assert (not (= x05 x24)))
(assert (not (= x05 (_ bv7 8))))
(assert (not (= x13 (_ bv2 8))))
(assert (not (= x13 x15)))
(assert (not (= x13 x23)))
(assert (not (= x13 x24)))
(assert (not (= x13 (_ bv7 8))))
(assert (not (= (_ bv2 8) x15)))
(assert (not (= (_ bv2 8) x23)))
(assert (not (= (_ bv2 8) x24)))
(assert (not (= (_ bv2 8) (_ bv7 8))))
(assert (not (= x15 x23)))
(assert (not (= x15 x24)))
(assert (not (= x15 (_ bv7 8))))
(assert (not (= x23 x24)))
(assert (not (= x23 (_ bv7 8))))
(assert (not (= x24 (_ bv7 8))))
(assert (not (= (_ bv3 8) (_ bv6 8))))
(assert (not (= (_ bv3 8) x08)))
(assert (not (= (_ bv3 8) x16)))
(assert (not (= (_ bv3 8) x17)))
(assert (not (= (_ bv3 8) x18)))
(assert (not (= (_ bv3 8) (_ bv4 8))))
(assert (not (= (_ bv3 8) (_ bv5 8))))
(assert (not (= (_ bv3 8) x28)))
(assert (not (= (_ bv6 8) x08)))
(assert (not (= (_ bv6 8) x16)))
(assert (not (= (_ bv6 8) x17)))
(assert (not (= (_ bv6 8) x18)))
(assert (not (= (_ bv6 8) (_ bv4 8))))
(assert (not (= (_ bv6 8) (_ bv5 8))))
(assert (not (= (_ bv6 8) x28)))
(assert (not (= x08 x16)))
(assert (not (= x08 x17)))
(assert (not (= x08 x18)))
(assert (not (= x08 (_ bv4 8))))
(assert (not (= x08 (_ bv5 8))))
(assert (not (= x08 x28)))
(assert (not (= x16 x17)))
(assert (not (= x16 x18)))
(assert (not (= x16 (_ bv4 8))))
(assert (not (= x16 (_ bv5 8))))
(assert (not (= x16 x28)))
(assert (not (= x17 x18)))
(assert (not (= x17 (_ bv4 8))))
(assert (not (= x17 (_ bv5 8))))
(assert (not (= x17 x28)))
(assert (not (= x18 (_ bv4 8))))
(assert (not (= x18 (_ bv5 8))))
(assert (not (= x18 x28)))
(assert (not (= (_ bv4 8) (_ bv5 8))))
(assert (not (= (_ bv4 8) x28)))
(assert (not (= (_ bv5 8) x28)))
(assert (not (= x30 x31)))
(assert (not (= x30 x32)))
(assert (not (= x30 (_ bv1 8))))
(assert (not (= x30 (_ bv7 8))))
(assert (not (= x30 x42)))
(assert (not (= x30 (_ bv5 8))))
(assert (not (= x30 x51)))
(assert (not (= x30 x52)))
(assert (not (= x31 x32)))
(assert (not (= x31 (_ bv1 8))))
(assert (not (= x31 (_ bv7 8))))
(assert (not (= x31 x42)))
(assert (not (= x31 (_ bv5 8))))
(assert (not (= x31 x51)))
(assert (not (= x31 x52)))
(assert (not (= x32 (_ bv1 8))))
(assert (not (= x32 (_ bv7 8))))
(assert (not (= x32 x42)))
(assert (not (= x32 (_ bv5 8))))
(assert (not (= x32 x51)))
(assert (not (= x32 x52)))
(assert (not (= (_ bv1 8) (_ bv7 8))))
(assert (not (= (_ bv1 8) x42)))
(assert (not (= (_ bv1 8) (_ bv5 8))))
(assert (not (= (_ bv1 8) x51)))
(assert (not (= (_ bv1 8) x52)))
(assert (not (= (_ bv7 8) x42)))
(assert (not (= (_ bv7 8) (_ bv5 8))))
(assert (not (= (_ bv7 8) x51)))
(assert (not (= (_ bv7 8) x52)))
(assert (not (= x42 (_ bv5 8))))
(assert (not (= x42 x51)))
(assert (not (= x42 x52)))
(assert (not (= (_ bv5 8) x51)))
(assert (not (= (_ bv5 8) x52)))
(assert (not (= x51 x52)))
(assert (not (= x33 x34)))
(assert (not (= x33 (_ bv8 8))))
(assert (not (= x33 x43)))
(assert (not (= x33 (_ bv9 8))))
(assert (not (= x33 (_ bv3 8))))
(assert (not (= x33 x53)))
(assert (not (= x33 (_ bv1 8))))
(assert (not (= x33 x55)))
(assert (not (= x34 (_ bv8 8))))
(assert (not (= x34 x43)))
(assert (not (= x34 (_ bv9 8))))
(assert (not (= x34 (_ bv3 8))))
(assert (not (= x34 x53)))
(assert (not (= x34 (_ bv1 8))))
(assert (not (= x34 x55)))
(assert (not (= (_ bv8 8) x43)))
(assert (not (= (_ bv8 8) (_ bv9 8))))
(assert (not (= (_ bv8 8) (_ bv3 8))))
(assert (not (= (_ bv8 8) x53)))
(assert (not (= (_ bv8 8) (_ bv1 8))))
(assert (not (= (_ bv8 8) x55)))
(assert (not (= x43 (_ bv9 8))))
(assert (not (= x43 (_ bv3 8))))
(assert (not (= x43 x53)))
(assert (not (= x43 (_ bv1 8))))
(assert (not (= x43 x55)))
(assert (not (= (_ bv9 8) (_ bv3 8))))
(assert (not (= (_ bv9 8) x53)))
(assert (not (= (_ bv9 8) (_ bv1 8))))
(assert (not (= (_ bv9 8) x55)))
(assert (not (= (_ bv3 8) x53)))
(assert (not (= (_ bv3 8) (_ bv1 8))))
(assert (not (= (_ bv3 8) x55)))
(assert (not (= x53 (_ bv1 8))))
(assert (not (= x53 x55)))
(assert (not (= (_ bv1 8) x55)))
(assert (not (= x36 (_ bv7 8))))
(assert (not (= x36 x38)))
(assert (not (= x36 x46)))
(assert (not (= x36 x47)))
(assert (not (= x36 x48)))
(assert (not (= x36 (_ bv2 8))))
(assert (not (= x36 x57)))
(assert (not (= x36 (_ bv8 8))))
(assert (not (= (_ bv7 8) x38)))
(assert (not (= (_ bv7 8) x46)))
(assert (not (= (_ bv7 8) x47)))
(assert (not (= (_ bv7 8) x48)))
(assert (not (= (_ bv7 8) (_ bv2 8))))
(assert (not (= (_ bv7 8) x57)))
(assert (not (= (_ bv7 8) (_ bv8 8))))
(assert (not (= x38 x46)))
(assert (not (= x38 x47)))
(assert (not (= x38 x48)))
(assert (not (= x38 (_ bv2 8))))
(assert (not (= x38 x57)))
(assert (not (= x38 (_ bv8 8))))
(assert (not (= x46 x47)))
(assert (not (= x46 x48)))
(assert (not (= x46 (_ bv2 8))))
(assert (not (= x46 x57)))
(assert (not (= x46 (_ bv8 8))))
(assert (not (= x47 x48)))
(assert (not (= x47 (_ bv2 8))))
(assert (not (= x47 x57)))
(assert (not (= x47 (_ bv8 8))))
(assert (not (= x48 (_ bv2 8))))
(assert (not (= x48 x57)))
(assert (not (= x48 (_ bv8 8))))
(assert (not (= (_ bv2 8) x57)))
(assert (not (= (_ bv2 8) (_ bv8 8))))
(assert (not (= x57 (_ bv8 8))))
(assert (not (= (_ bv8 8) x61)))
(assert (not (= (_ bv8 8) x62)))
(assert (not (= (_ bv8 8) x70)))
(assert (not (= (_ bv8 8) x71)))
(assert (not (= (_ bv8 8) (_ bv3 8))))
(assert (not (= (_ bv8 8) x80)))
(assert (not (= (_ bv8 8) (_ bv1 8))))
(assert (not (= (_ bv8 8) x82)))
(assert (not (= x61 x62)))
(assert (not (= x61 x70)))
(assert (not (= x61 x71)))
(assert (not (= x61 (_ bv3 8))))
(assert (not (= x61 x80)))
(assert (not (= x61 (_ bv1 8))))
(assert (not (= x61 x82)))
(assert (not (= x62 x70)))
(assert (not (= x62 x71)))
(assert (not (= x62 (_ bv3 8))))
(assert (not (= x62 x80)))
(assert (not (= x62 (_ bv1 8))))
(assert (not (= x62 x82)))
(assert (not (= x70 x71)))
(assert (not (= x70 (_ bv3 8))))
(assert (not (= x70 x80)))
(assert (not (= x70 (_ bv1 8))))
(assert (not (= x70 x82)))
(assert (not (= x71 (_ bv3 8))))
(assert (not (= x71 x80)))
(assert (not (= x71 (_ bv1 8))))
(assert (not (= x71 x82)))
(assert (not (= (_ bv3 8) x80)))
(assert (not (= (_ bv3 8) (_ bv1 8))))
(assert (not (= (_ bv3 8) x82)))
(assert (not (= x80 (_ bv1 8))))
(assert (not (= x80 x82)))
(assert (not (= (_ bv1 8) x82)))
(assert (not (= (_ bv6 8) (_ bv3 8))))
(assert (not (= (_ bv6 8) x65)))
(assert (not (= (_ bv6 8) (_ bv9 8))))
(assert (not (= (_ bv6 8) (_ bv5 8))))
(assert (not (= (_ bv6 8) x75)))
(assert (not (= (_ bv6 8) x83)))
(assert (not (= (_ bv6 8) x84)))
(assert (not (= (_ bv6 8) (_ bv4 8))))
(assert (not (= (_ bv3 8) x65)))
(assert (not (= (_ bv3 8) (_ bv9 8))))
(assert (not (= (_ bv3 8) (_ bv5 8))))
(assert (not (= (_ bv3 8) x75)))
(assert (not (= (_ bv3 8) x83)))
(assert (not (= (_ bv3 8) x84)))
(assert (not (= (_ bv3 8) (_ bv4 8))))
(assert (not (= x65 (_ bv9 8))))
(assert (not (= x65 (_ bv5 8))))
(assert (not (= x65 x75)))
(assert (not (= x65 x83)))
(assert (not (= x65 x84)))
(assert (not (= x65 (_ bv4 8))))
(assert (not (= (_ bv9 8) (_ bv5 8))))
(assert (not (= (_ bv9 8) x75)))
(assert (not (= (_ bv9 8) x83)))
(assert (not (= (_ bv9 8) x84)))
(assert (not (= (_ bv9 8) (_ bv4 8))))
(assert (not (= (_ bv5 8) x75)))
(assert (not (= (_ bv5 8) x83)))
(assert (not (= (_ bv5 8) x84)))
(assert (not (= (_ bv5 8) (_ bv4 8))))
(assert (not (= x75 x83)))
(assert (not (= x75 x84)))
(assert (not (= x75 (_ bv4 8))))
(assert (not (= x83 x84)))
(assert (not (= x83 (_ bv4 8))))
(assert (not (= x84 (_ bv4 8))))
(assert (not (= (_ bv1 8) x67)))
(assert (not (= (_ bv1 8) (_ bv4 8))))
(assert (not (= (_ bv1 8) (_ bv7 8))))
(assert (not (= (_ bv1 8) x77)))
(assert (not (= (_ bv1 8) x78)))
(assert (not (= (_ bv1 8) x86)))
(assert (not (= (_ bv1 8) (_ bv2 8))))
(assert (not (= (_ bv1 8) x88)))
(assert (not (= x67 (_ bv4 8))))
(assert (not (= x67 (_ bv7 8))))
(assert (not (= x67 x77)))
(assert (not (= x67 x78)))
(assert (not (= x67 x86)))
(assert (not (= x67 (_ bv2 8))))
(assert (not (= x67 x88)))
(assert (not (= (_ bv4 8) (_ bv7 8))))
(assert (not (= (_ bv4 8) x77)))
(assert (not (= (_ bv4 8) x78)))
(assert (not (= (_ bv4 8) x86)))
(assert (not (= (_ bv4 8) (_ bv2 8))))
(assert (not (= (_ bv4 8) x88)))
(assert (not (= (_ bv7 8) x77)))
(assert (not (= (_ bv7 8) x78)))
(assert (not (= (_ bv7 8) x86)))
(assert (not (= (_ bv7 8) (_ bv2 8))))
(assert (not (= (_ bv7 8) x88)))
(assert (not (= x77 x78)))
(assert (not (= x77 x86)))
(assert (not (= x77 (_ bv2 8))))
(assert (not (= x77 x88)))
(assert (not (= x78 x86)))
(assert (not (= x78 (_ bv2 8))))
(assert (not (= x78 x88)))
(assert (not (= x86 (_ bv2 8))))
(assert (not (= x86 x88)))
(assert (not (= (_ bv2 8) x88)))
(check-sat)
(exit)
